NAME : local_7
TYPE : ATSP
DIMENSION : 7
EDGE_WEIGHT_TYPE : EXPLICIT
EDGE_WEIGHT_FORMAT : FULL_MATRIX
EDGE_WEIGHT_SECTION
0 420 10000000 207 10000000 507 640 
0 0 10000000 241 10000000 385 815 
0 10000000 0 10000000 367 10000000 806 
0 241 10000000 0 10000000 334 765 
0 10000000 367 10000000 0 10000000 10000000 
0 385 10000000 334 10000000 0 10000000 
0 10000000 10000000 10000000 10000000 10000000 0 
EOF